min: c;

c = 3.08645707645783 * u1_t7_h4 + 3.58453817480728 * u1_t7_h5 + 3.49922561145857 * u1_t5_h6 + 3.49922561145857 * u1_t7_h6 + 4.40143526202266 * u1_t5_h7 + 4.40143526202266 * u1_t7_h7 + 4.40143526202266 * u1_t9_h7 + 5.14716844275582 * u1_t5_h8 + 5.14716844275582 * u1_t7_h8 + 5.14716844275582 * u1_t9_h8 + 5.14716844275582 * u1_t10_h8 + 5.31289168102192 * u1_t5_h9 + 5.31289168102192 * u1_t7_h9 + 5.31289168102192 * u1_t9_h9 + 5.31289168102192 * u1_t10_h9 + 5.45200382040061 * u1_t5_h10 + 5.45200382040061 * u1_t7_h10 + 5.45200382040061 * u1_t9_h10 + 5.45200382040061 * u1_t10_h10 + 4.15640528850409 * u1_t5_h11 + 4.15640528850409 * u1_t9_h11 + 4.15640528850409 * u1_t10_h11 + 6.35948131717337 * u1_t4_h12 + 6.35948131717337 * u1_t5_h12 + 6.35948131717337 * u1_t8_h12 + 6.35948131717337 * u1_t9_h12 + 6.35948131717337 * u1_t10_h12 + 4.16797429509129 * u1_t4_h13 + 4.16797429509129 * u1_t8_h13 + 4.16797429509129 * u1_t9_h13 + 4.16797429509129 * u1_t10_h13 + 5.80626981458412 * u1_t4_h14 + 5.80626981458412 * u1_t8_h14 + 5.80626981458412 * u1_t9_h14 + 5.80626981458412 * u1_t10_h14 + 5.87162331023264 * u1_t4_h15 + 5.87162331023264 * u1_t8_h15 + 5.61406774419113 * u1_t4_h16 + 5.61406774419113 * u1_t8_h16 + 6.56620461049385 * u1_t4_h17 + 6.56620461049385 * u1_t8_h17 + 6.17375586095476 * u1_t2_h18 + 6.17375586095476 * u1_t4_h18 + 6.17375586095476 * u1_t6_h18 + 6.17375586095476 * u1_t8_h18 + 5.97020433925531 * u1_t2_h19 + 5.97020433925531 * u1_t3_h19 + 5.97020433925531 * u1_t4_h19 + 5.97020433925531 * u1_t6_h19 + 5.14203416966082 * u1_t1_h20 + 5.14203416966082 * u1_t2_h20 + 5.14203416966082 * u1_t3_h20 + 5.14203416966082 * u1_t4_h20 + 5.14203416966082 * u1_t6_h20 + 5.38009330766337 * u1_t1_h21 + 5.38009330766337 * u1_t2_h21 + 5.38009330766337 * u1_t3_h21 + 5.23886569223511 * u1_t1_h22 + 5.23886569223511 * u1_t2_h22 + 5.55751518213488 * u1_t1_h23 + 5.55751518213488 * u1_t2_h23;
0 <= u1_t1_h20 <= 1;
0 <= u1_t1_h21 <= 1;
0 <= u1_t1_h22 <= 1;
0 <= u1_t1_h23 <= 1;
u1_t1_h20 + u1_t1_h21 + u1_t1_h22 + u1_t1_h23 = 1;
0 <= u1_t2_h18 <= 1;
0 <= u1_t2_h19 <= 1;
0 <= u1_t2_h20 <= 1;
0 <= u1_t2_h21 <= 1;
0 <= u1_t2_h22 <= 1;
0 <= u1_t2_h23 <= 1;
u1_t2_h18 + u1_t2_h19 + u1_t2_h20 + u1_t2_h21 + u1_t2_h22 + u1_t2_h23 = 2;
0 <= u1_t3_h19 <= 1;
0 <= u1_t3_h20 <= 1;
0 <= u1_t3_h21 <= 1;
u1_t3_h19 + u1_t3_h20 + u1_t3_h21 = 1;
0 <= u1_t4_h12 <= 1;
0 <= u1_t4_h13 <= 1;
0 <= u1_t4_h14 <= 1;
0 <= u1_t4_h15 <= 1;
0 <= u1_t4_h16 <= 1;
0 <= u1_t4_h17 <= 1;
0 <= u1_t4_h18 <= 1;
0 <= u1_t4_h19 <= 1;
0 <= u1_t4_h20 <= 1;
u1_t4_h12 + u1_t4_h13 + u1_t4_h14 + u1_t4_h15 + u1_t4_h16 + u1_t4_h17 + u1_t4_h18 + u1_t4_h19 + u1_t4_h20 = 3;
0 <= u1_t5_h6 <= 1;
0 <= u1_t5_h7 <= 1;
0 <= u1_t5_h8 <= 1;
0 <= u1_t5_h9 <= 1;
0 <= u1_t5_h10 <= 1;
0 <= u1_t5_h11 <= 1;
0 <= u1_t5_h12 <= 1;
u1_t5_h6 + u1_t5_h7 + u1_t5_h8 + u1_t5_h9 + u1_t5_h10 + u1_t5_h11 + u1_t5_h12 = 3;
0 <= u1_t6_h18 <= 1;
0 <= u1_t6_h19 <= 1;
0 <= u1_t6_h20 <= 1;
u1_t6_h18 + u1_t6_h19 + u1_t6_h20 = 2;
0 <= u1_t7_h4 <= 1;
0 <= u1_t7_h5 <= 1;
0 <= u1_t7_h6 <= 1;
0 <= u1_t7_h7 <= 1;
0 <= u1_t7_h8 <= 1;
0 <= u1_t7_h9 <= 1;
0 <= u1_t7_h10 <= 1;
u1_t7_h4 + u1_t7_h5 + u1_t7_h6 + u1_t7_h7 + u1_t7_h8 + u1_t7_h9 + u1_t7_h10 = 2;
0 <= u1_t8_h12 <= 1;
0 <= u1_t8_h13 <= 1;
0 <= u1_t8_h14 <= 1;
0 <= u1_t8_h15 <= 1;
0 <= u1_t8_h16 <= 1;
0 <= u1_t8_h17 <= 1;
0 <= u1_t8_h18 <= 1;
u1_t8_h12 + u1_t8_h13 + u1_t8_h14 + u1_t8_h15 + u1_t8_h16 + u1_t8_h17 + u1_t8_h18 = 2;
0 <= u1_t9_h7 <= 1;
0 <= u1_t9_h8 <= 1;
0 <= u1_t9_h9 <= 1;
0 <= u1_t9_h10 <= 1;
0 <= u1_t9_h11 <= 1;
0 <= u1_t9_h12 <= 1;
0 <= u1_t9_h13 <= 1;
0 <= u1_t9_h14 <= 1;
u1_t9_h7 + u1_t9_h8 + u1_t9_h9 + u1_t9_h10 + u1_t9_h11 + u1_t9_h12 + u1_t9_h13 + u1_t9_h14 = 3;
0 <= u1_t10_h8 <= 1;
0 <= u1_t10_h9 <= 1;
0 <= u1_t10_h10 <= 1;
0 <= u1_t10_h11 <= 1;
0 <= u1_t10_h12 <= 1;
0 <= u1_t10_h13 <= 1;
0 <= u1_t10_h14 <= 1;
u1_t10_h8 + u1_t10_h9 + u1_t10_h10 + u1_t10_h11 + u1_t10_h12 + u1_t10_h13 + u1_t10_h14 = 3;
